Minimize
  C18 + C19 + C20 + C21 + C22 + C23 + C24 + C25 + C26 + 10 C27 + 10 C28
   + 10 C38 + 10 C39 + 10 C40 + 10 C41 + 10 C42 + 10 C43 + C71 + C72 + C73
   + C74 + C75 + C76 + C77 + C78 + C79 + C98 + C99 + C100 + C101 + C102
   + C103 + C104 + C105 + C106 + C107 + C108 + C109 + C110 + C111 + C112
   + C113 + C114 + C115 + C116 + C117 + C118 + C119 + C120 + C121 + C122
   + C123 + C124 + C143 + C144 + C145 + C146 + C147 + C148 + C149 + C150
   + C151 + C161 + C162 + C163 + C164 + C165 + C166 + C167 + C168 + C169
   + C170 + C171 + C172 + C173 + C174 + C175 + C176 + C177 + C178 + 10 C179
   + 10 C180 + C181 + C182 + C183 + C184 + C185 + C186 + C187 + C188 + C189
   + 10 C208 + 10 C209 + C210 + C211 + C212 + C213 + C214 + C215 + C216
   + C217 + C218 + 10 C228 + 10 C229 + 10 C230 + C240 + C241 + C242 + C243
   + C244 + C245 + C246 + C247 + C248 + C249 + C250 + C251 + C252 + C253
   + C254 + C255 + C256 + C257 + C258 + C259 + C260 + C261 + C262 + C263
   + C264 + C265 + C266 + C276 + C277 + C278 + C279 + C280 + C281 + C282
   + C283 + C284 + C285 + C286 + C287 + C288 + C289 + C290 + C291 + C292
   + C293 + 10 C303 + 10 C304 + 10 C305 + 10 C324 + 10 C325 + 10 C326
   + C336 + C337 + C338 + C339 + C340 + C341 + C342 + C343 + C344 + 10 C345
   + 10 C346 + 10 C347 + C348 + C349 + C350 + C351 + C352 + C353 + C354
   + C355 + C356 + C366 + C367 + C368 + C369 + C370 + C371 + C372 + C373
   + C374 + C375 + C376 + C377 + C378 + C379 + C380 + C381 + C382 + C383
   + C384 + C385 + C386 + C387 + C388 + C389 + C390 + C391 + C392 + 10 C402
   + 10 C403 + 10 C404 + 0 C414 + 0 C415 + 0 C416 + 0 C417 + 0 C418
   + 0 C419 + 0 C420 + 0 C421 + 0 C422 + C423 + C424 + C425 + C426 + C427
   + C428 + C429 + C430 + C431 + C432 + C433 + C434 + C435 + C436 + C437
   + C438 + C439 + C440 + 10 C441 + 10 C442 + 10 C443 + 10 C453 + 10 C454
   + 10 C455 + 10 C456 + 10 C457 + 10 C458 + 10 C459 + 10 C460 + 10 C461
   + C480 + C481 + C482 + C483 + C484 + C485 + C486 + C487 + C488 + C498
   + C499 + C500 + C501 + C502 + C503 + C504 + C505 + C506 + C516 + C517
   + C518 + C519 + C520 + C521 + C522 + C523 + C524 + C534 + C535 + C536
   + C537 + C538 + C539 + C540 + C541 + C542 + 10 C552 + 10 C553 + 10 C554
   + C564 + C565 + C566 + C567 + C568 + C569 + C570 + C571 + C572 + C573
   + C574 + C575 + C576 + C577 + C578 + C579 + C580 + C581 + C582 + C583
   + C584 + C585 + C586 + C587 + C588 + C589 + C590 + 10 C600 + 10 C601
   + C611 + C612 + C613 + C614 + C615 + C616 + C617 + C618 + C619
Subject To
 R0: C0 + C1 + C2 + C3 + C4 + C5 + C6 + C7 + C8 - 0.8 C386 = 0
 R1: C9 + C10 + C11 + C12 + C13 + C14 + C15 + C16 + C17 - 0.8 C385 = 0
 R2: 0.98 C18 + 0.98 C19 + 0.98 C20 + 0.98 C21 + 0.9 C22 + 0.98 C23
   + 0.98 C24 + 0.98 C25 + 0.98 C26 - 0.08 C571 = 0
 R3: - 0.08 C18 + C27 + C28 - 0.08 C567 = 0
 R4: C29 + C30 + C31 + C32 + C33 + C34 + C35 + C36 + C37 - 0.08 C566 = 0
 R5: - 0.08 C26 + C38 + C39 + C40 - 0.08 C281 - 0.08 C284 - 0.08 C518
   - 0.08 C521 - 0.08 C613 = 0
 R6: - 0.08 C20 - 0.08 C23 + C41 + C42 + C43 - 0.08 C278 - 0.08 C569
   - 0.08 C572 = 0
 R7: C44 + C45 + C46 + C47 + C48 + C49 + C50 + C51 + C52 - 0.72 C168 = 0
 R8: C53 + C54 + C55 + C56 + C57 + C58 + C59 + C60 + C61 - 0.08 C167 = 0
 R9: C62 + C63 + C64 + C65 + C66 + C67 + C68 + C69 + C70 - 0.72 C167 = 0
 R10: - C28 + C71 + C72 + C73 + C74 + C75 + C76 + C77 + C78 + C79 - C180
   = 0
 R11: - C27 + C80 + C81 + C82 + C83 + C84 + C85 + C86 + C87 + C88 - C179
   = 0
 R12: C89 + C90 + C91 + C92 + C93 + C94 + C95 + C96 + C97 - 0.08 C168 = 0
 R13: - 0.72 C25 - 0.8 C74 + C98 + C99 + C100 + C101 + C102 + C103 + C104
   + C105 + C106 - 0.8 C151 - 0.8 C177 - 0.8 C540 = 0
 R14: C107 + C108 + C109 + C110 + C111 + C112 + C113 + C114 + C115 - C228
   - C456 = 0
 R15: - C43 + C116 + C117 + C118 + C119 + C120 + C121 + C122 + C123 + C124
   - C305 = 0
 R16: - 0.08 C19 + C125 + C126 + C127 + C128 + C129 + C130 + C131 + C132
   + C133 - 0.02 C564 - 0.02 C565 - 0.02 C566 - 0.02 C567 - 0.1 C568
   - 0.02 C569 - 0.02 C570 - 0.02 C571 - 0.02 C572 = 0
 R17: C134 + C135 + C136 + C137 + C138 + C139 + C140 + C141 + C142
   - 0.72 C169 = 0
 R18: - C42 + C143 + C144 + C145 + C146 + C147 + C148 + C149 + C150 + C151
   - C304 = 0
 R19: - C41 + C152 + C153 + C154 + C155 + C156 + C157 + C158 + C159 + C160
   - C303 = 0
 R20: - 0.8 C77 + C161 + C162 + C163 + C164 + C165 + C166 + C167 + C168
   + C169 = 0
 R21: - 0.18 C18 - 0.18 C19 - 0.18 C20 - 0.18 C21 - 0.9 C22 - 0.18 C23
   - 0.18 C24 - 0.18 C25 - 0.18 C26 - 0.8 C71 - 0.8 C113 - 0.8 C148
   + 0.8 C170 + 0.8 C171 + 0.8 C172 + 0.8 C173 + 0.8 C175 + 0.8 C176
   + 0.8 C177 + 0.8 C178 - 0.8 C439 - 0.8 C488 - 0.8 C537 - 0.72 C571 = 0
 R22: - 0.72 C18 - 0.8 C144 - 0.8 C170 + C179 + C180 - 0.8 C390 - 0.8 C435
   - C480 - 0.2 C481 - 0.2 C482 - 0.2 C483 - C484 - 0.2 C485 - 0.2 C486
   - 0.2 C487 - 0.2 C488 - 0.72 C567 = 0
 R23: C181 + C182 + C183 + C184 + C185 + C186 + C187 + C188 + C189 - C230
   - C458 = 0
 R24: C190 + C191 + C192 + C193 + C194 + C195 + C196 + C197 + C198
   - 0.8 C387 - 0.8 C432 - 0.8 C481 - 0.72 C564 = 0
 R25: C199 + C200 + C201 + C202 + C203 + C204 + C205 + C206 + C207 - C209
   - C601 = 0
 R26: - 0.72 C163 - 0.2 C181 - 0.2 C182 - 0.2 C183 - 0.2 C184 - C185
   - 0.2 C186 - 0.2 C187 - 0.2 C188 - C189 + C208 + C209 - 0.8 C247
   - 0.72 C383 - 0.72 C428 = 0
 R27: C210 + C211 + C212 + C213 + C214 + C215 + C216 + C217 + C218 - C324
   - C453 = 0
 R28: C219 + C220 + C221 + C222 + C223 + C224 + C225 + C226 + C227 - C443
   - C461 = 0
 R29: - 0.72 C24 - 0.8 C98 - 0.8 C116 - 0.8 C117 - 0.8 C119 - 0.8 C150
   - 0.8 C176 - 0.8 C213 - 0.8 C216 - 0.8 C217 + C228 + C229 + C230
   - 0.72 C282 - 0.8 C286 - C348 - C349 - 0.2 C350 - 0.2 C351 - C352
   - 0.2 C353 - 0.2 C354 - 0.2 C355 - 0.2 C356 - 0.8 C369 - 0.72 C375
   - 0.8 C504 - 0.72 C519 - C573 - 0.2 C574 - 0.2 C575 - C576 - C577
   - 0.2 C578 - C579 - 0.2 C580 - 0.2 C581 - 0.72 C611 = 0
 R30: C231 + C232 + C233 + C234 + C235 + C236 + C237 + C238 + C239
   - 0.8 C384 = 0
 R31: C240 + C241 + C242 + C243 + C244 + C245 + C246 + C247 + C248 - C442
   - C460 = 0
 R32: C249 + C250 + C251 + C252 + C253 + C254 + C255 + C256 + C257 - C441
   - C459 = 0
 R33: - C229 + C258 + C259 + C260 + C261 + C262 + C263 + C264 + C265 + C266
   - C457 = 0
 R34: - 0.08 C166 + C267 + C268 + C269 + C270 + C271 + C272 + C273 + C274
   + C275 - 0.08 C431 = 0
 R35: C276 + C277 + C278 + C279 + C280 + C281 + C282 + C283 + C284
   - 0.08 C376 = 0
 R36: C285 + C286 + C287 + C288 + C289 + C290 + C291 + C292 + C293 - C325
   - C454 = 0
 R37: - 0.72 C161 - 0.8 C292 + C294 + C295 + C296 + C297 + C298 + C299
   + C300 + C301 + C302 - C326 - 0.72 C381 - 0.72 C426 - C455 - 0.2 C582
   - 0.2 C583 - 0.2 C584 - 0.2 C585 - C586 - 0.2 C587 - 0.2 C588 - 0.2 C589
   - 0.2 C590 = 0
 R38: - 0.72 C20 - 0.72 C23 - 0.8 C72 - 0.8 C73 - 0.8 C76 - 0.2 C107
   - 0.2 C108 - C109 - 0.2 C110 - C111 - C112 - 0.2 C113 - C114 - C115
   - 0.8 C172 - 0.8 C175 - 0.8 C250 - 0.72 C278 + C303 + C304 + C305
   - 0.8 C392 - 0.8 C437 - 0.8 C440 - 0.8 C500 - 0.2 C534 - C535 - C536
   - 0.2 C537 - C538 - C539 - 0.2 C540 - 0.2 C541 - C542 - 0.72 C569
   - 0.72 C572 = 0
 R39: - 0.8 C108 + C306 + C307 + C308 + C309 + C310 + C311 + C312 + C313
   + C314 - 0.8 C389 - 0.8 C434 - 0.72 C566 = 0
 R40: C315 + C316 + C317 + C318 + C319 + C320 + C321 + C322 + C323 = 1
 R41: C324 + C325 + C326 - 0.08 C377 - 0.08 C380 - 0.08 C425 - 0.08 C524
   - 0.08 C616 - 0.08 C619 = 0
 R42: - 0.08 C169 + C327 + C328 + C329 + C330 + C331 + C332 + C333 + C334
   + C335 = 0
 R43: C336 + C337 + C338 + C339 + C340 + C341 + C342 + C343 + C344 - C404
   - C554 = 0
 R44: - 0.72 C26 - 0.2 C71 - 0.2 C72 - 0.2 C73 - 0.2 C74 - C75 - 0.2 C76
   - 0.2 C77 - C78 - C79 - 0.8 C100 - 0.8 C178 - 0.2 C249 - 0.2 C250 - C251
   - 0.2 C252 - C253 - C254 - 0.2 C255 - C256 - C257 - 0.2 C258 - C259
   - C260 - 0.2 C261 - C262 - C263 - 0.2 C264 - 0.2 C265 - C266 - 0.72 C281
   - 0.72 C284 - 0.8 C337 - 0.8 C338 - 0.8 C341 + C345 + C346 + C347
   - 0.8 C368 - 0.8 C371 - 0.8 C503 - 0.8 C506 - 0.72 C518 - 0.72 C521
   - 0.8 C541 - 0.72 C613 = 0
 R45: - C208 + C348 + C349 + C350 + C351 + C352 + C353 + C354 + C355 + C356
   - C600 = 0
 R46: - 0.02 C161 - 0.02 C162 - 0.02 C163 - 0.02 C164 - 0.1 C165
   - 0.02 C166 - 0.02 C167 - 0.02 C168 - 0.02 C169 + C357 + C358 + C359
   + C360 + C361 + C362 + C363 + C364 + C365 - 0.08 C430 - 0.08 C618 = 0
 R47: - 0.8 C99 - 0.8 C118 - 0.8 C218 - 0.8 C255 - 0.8 C261 - 0.72 C283
   - C315 - C316 - C317 - C318 - C319 - C320 - C321 - C322 - C323
   - 0.8 C336 + 0.8 C366 + 0.8 C367 + 0.8 C368 + 0.8 C369 + 0.8 C371
   + 0.8 C372 + 0.8 C373 + 0.8 C374 - 0.8 C505 - 0.18 C516 - 0.18 C517
   - 0.18 C518 - 0.18 C519 - 0.9 C520 - 0.18 C521 - 0.18 C522 - 0.18 C523
   - 0.18 C524 - 0.8 C578 - 0.72 C612 = 0
 R48: - 0.8 C181 - 0.8 C243 - 0.8 C290 - 0.8 C356 + 0.8 C375 + 0.8 C376
   + 0.8 C377 + 0.8 C378 + 0.8 C380 + 0.8 C381 + 0.8 C382 + 0.8 C383
   - 0.8 C424 - 0.8 C584 = 0
 R49: - 0.8 C350 + C384 + C385 + C386 + C387 + C388 + C389 + C390 + C391
   + C392 = 0
 R50: - 0.72 C164 + C393 + C394 + C395 + C396 + C397 + C398 + C399 + C400
   + C401 - 0.72 C429 - 0.8 C589 = 0
 R51: - 0.72 C21 - C143 - 0.2 C144 - 0.2 C145 - C146 - C147 - 0.2 C148
   - C149 - 0.2 C150 - 0.2 C151 - 0.8 C173 - C210 - C211 - 0.2 C212
   - 0.2 C213 - C214 - 0.2 C215 - 0.2 C216 - 0.2 C217 - 0.2 C218
   - 0.72 C276 - 0.72 C279 - 0.8 C366 + C402 + C403 + C404 - 0.8 C438
   - 0.8 C483 - 0.8 C486 - 0.8 C487 - 0.8 C498 - 0.8 C501 - 0.72 C516
   - 0.72 C570 - 0.8 C574 = 0
 R52: - 0.72 C162 - 0.8 C184 - 0.8 C246 - 0.8 C293 - 0.72 C382 + C405
   + C406 + C407 + C408 + C409 + C410 + C411 + C412 + C413 - 0.18 C423
   - 0.18 C424 - 0.18 C425 - 0.18 C426 - 0.9 C427 - 0.18 C428 - 0.18 C429
   - 0.18 C430 - 0.18 C431 - 0.8 C587 = 0
 R53: - C0 - C1 - C2 - C3 - C4 - C5 - C6 - C7 - C8 - C9 - C10 - C11 - C12
   - C13 - C14 - C15 - C16 - C17 - C29 - C30 - C31 - C32 - C33 - C34 - C35
   - C36 - C37 - C44 - C45 - C46 - C47 - C48 - C49 - C50 - C51 - C52 - C53
   - C54 - C55 - C56 - C57 - C58 - C59 - C60 - C61 - C62 - C63 - C64 - C65
   - C66 - C67 - C68 - C69 - C70 - C80 - C81 - C82 - C83 - C84 - C85 - C86
   - C87 - C88 - C89 - C90 - C91 - C92 - C93 - C94 - C95 - C96 - C97 - C125
   - C126 - C127 - C128 - C129 - C130 - C131 - C132 - C133 - C134 - C135
   - C136 - C137 - C138 - C139 - C140 - C141 - C142 - C152 - C153 - C154
   - C155 - C156 - C157 - C158 - C159 - C160 - C190 - C191 - C192 - C193
   - C194 - C195 - C196 - C197 - C198 - C199 - C200 - C201 - C202 - C203
   - C204 - C205 - C206 - C207 - C219 - C220 - C221 - C222 - C223 - C224
   - C225 - C226 - C227 - C231 - C232 - C233 - C234 - C235 - C236 - C237
   - C238 - C239 - C267 - C268 - C269 - C270 - C271 - C272 - C273 - C274
   - C275 - C294 - C295 - C296 - C297 - C298 - C299 - C300 - C301 - C302
   - C306 - C307 - C308 - C309 - C310 - C311 - C312 - C313 - C314 - C327
   - C328 - C329 - C330 - C331 - C332 - C333 - C334 - C335 - C357 - C358
   - C359 - C360 - C361 - C362 - C363 - C364 - C365 - C393 - C394 - C395
   - C396 - C397 - C398 - C399 - C400 - C401 - C405 - C406 - C407 - C408
   - C409 - C410 - C411 - C412 - C413 - C444 - C445 - C446 - C447 - C448
   - C449 - C450 - C451 - C452 - C462 - C463 - C464 - C465 - C466 - C467
   - C468 - C469 - C470 - C471 - C472 - C473 - C474 - C475 - C476 - C477
   - C478 - C479 - C489 - C490 - C491 - C492 - C493 - C494 - C495 - C496
   - C497 - C507 - C508 - C509 - C510 - C511 - C512 - C513 - C514 - C515
   - C525 - C526 - C527 - C528 - C529 - C530 - C531 - C532 - C533 - C543
   - C544 - C545 - C546 - C547 - C548 - C549 - C550 - C551 - C555 - C556
   - C557 - C558 - C559 - C560 - C561 - C562 - C563 - C591 - C592 - C593
   - C594 - C595 - C596 - C597 - C598 - C599 - C602 - C603 - C604 - C605
   - C606 - C607 - C608 - C609 - C610 - C620 - C621 - C622 - C623 - C624
   - C625 - C626 - C627 - C628 = 0
 R54: - 0.2 C98 - 0.2 C99 - 0.2 C100 - 0.2 C101 - C102 - 0.2 C103
   - 0.2 C104 - 0.2 C105 - 0.2 C106 - 0.8 C121 - 0.8 C264 - 0.8 C339
   - 0.8 C373 + C423 + C424 + C425 + C426 + C427 + C428 + C429 + C430
   + C431 - 0.8 C523 - 0.8 C581 - 0.2 C611 - 0.2 C612 - 0.2 C613 - 0.2 C614
   - C615 - 0.2 C616 - 0.2 C617 - 0.2 C618 - 0.2 C619 = 0
 R55: - 0.8 C215 - 0.8 C252 - 0.8 C258 - 0.18 C276 - 0.18 C277 - 0.18 C278
   - 0.18 C279 - 0.9 C280 - 0.18 C281 - 0.18 C282 - 0.18 C283 - 0.18 C284
   - 0.8 C367 + C432 + C433 + C434 + C435 + C436 + C437 + C438 + C439
   + C440 - 0.2 C498 - 0.2 C499 - 0.2 C500 - 0.2 C501 - C502 - 0.2 C503
   - 0.2 C504 - 0.2 C505 - 0.2 C506 - 0.72 C517 - 0.8 C575 = 0
 R56: - 0.8 C101 - 0.8 C104 - 0.2 C116 - 0.2 C117 - 0.2 C118 - 0.2 C119
   - C120 - 0.2 C121 - C122 - C123 - 0.2 C124 - C285 - 0.2 C286 - 0.2 C287
   - C288 - C289 - 0.2 C290 - C291 - 0.2 C292 - 0.2 C293 - 0.8 C351
   - 0.8 C354 - 0.8 C355 - 0.8 C372 - 0.72 C378 - 0.72 C423 + C441 + C442
   + C443 - 0.72 C522 - 0.8 C580 - 0.8 C582 - 0.8 C583 - 0.8 C585
   - 0.72 C614 - 0.72 C617 = 0
 R57: - C402 + C444 + C445 + C446 + C447 + C448 + C449 + C450 + C451 + C452
   - C552 = 0
 R58: - 0.8 C103 - 0.8 C106 - 0.8 C182 - 0.8 C183 - 0.8 C186 - 0.2 C240
   - C241 - C242 - 0.2 C243 - C244 - C245 - 0.2 C246 - 0.2 C247 - C248
   - 0.8 C265 - 0.2 C336 - 0.2 C337 - 0.2 C338 - 0.2 C339 - C340 - 0.2 C341
   - 0.2 C342 - C343 - C344 - 0.8 C374 - 0.72 C377 - 0.72 C380 - 0.72 C425
   + C453 + C454 + C455 - 0.72 C524 - 0.72 C616 - 0.72 C619 = 0
 R59: - 0.08 C24 - 0.08 C282 - 0.08 C375 + C456 + C457 + C458 - 0.08 C519
   - 0.08 C611 = 0
 R60: - 0.08 C378 - 0.08 C423 + C459 + C460 + C461 - 0.08 C522 - 0.08 C614
   - 0.08 C617 = 0
 R61: - 0.08 C161 - 0.08 C381 - 0.08 C426 + C462 + C463 + C464 + C465
   + C466 + C467 + C468 + C469 + C470 = 0
 R62: - 0.08 C277 + C471 + C472 + C473 + C474 + C475 + C476 + C477 + C478
   + C479 - 0.08 C565 = 0
 R63: - C38 - C345 + C480 + C481 + C482 + C483 + C484 + C485 + C486 + C487
   + C488 = 0
 R64: - 0.72 C166 - 0.8 C188 - 0.72 C431 + C489 + C490 + C491 + C492 + C493
   + C494 + C495 + C496 + C497 = 0
 R65: - 0.8 C240 - 0.8 C287 - 0.8 C353 - 0.72 C376 + C498 + C499 + C500
   + C501 + C502 + C503 + C504 + C505 + C506 = 0
 R66: - 0.08 C162 - 0.08 C382 - 0.02 C423 - 0.02 C424 - 0.02 C425
   - 0.02 C426 - 0.1 C427 - 0.02 C428 - 0.02 C429 - 0.02 C430 - 0.02 C431
   + C507 + C508 + C509 + C510 + C511 + C512 + C513 + C514 + C515 = 0
 R67: - 0.08 C283 + 0.98 C516 + 0.98 C517 + 0.98 C518 + 0.98 C519
   + 0.9 C520 + 0.98 C521 + 0.98 C522 + 0.98 C523 + 0.98 C524 - 0.08 C612
   = 0
 R68: - 0.8 C107 - 0.8 C212 - 0.8 C249 - 0.72 C277 - 0.2 C384 - 0.2 C385
   - 0.2 C386 - 0.2 C387 - C388 - 0.2 C389 - 0.2 C390 - 0.2 C391 - 0.2 C392
   - 0.8 C433 - 0.8 C482 - 0.8 C499 + C525 + C526 + C527 + C528 + C529
   + C530 + C531 + C532 + C533 - 0.72 C565 = 0
 R69: - C403 + C534 + C535 + C536 + C537 + C538 + C539 + C540 + C541 + C542
   - C553 = 0
 R70: C543 + C544 + C545 + C546 + C547 + C548 + C549 + C550 + C551
   - 0.08 C564 = 0
 R71: - 0.08 C21 - 0.08 C276 - 0.08 C279 - 0.08 C516 + C552 + C553 + C554
   - 0.08 C570 = 0
 R72: - 0.8 C105 - 0.8 C124 - 0.18 C161 - 0.18 C162 - 0.18 C163 - 0.18 C164
   - 0.9 C165 - 0.18 C166 - 0.18 C167 - 0.18 C168 - 0.18 C169 - 0.8 C187
   - 0.8 C342 - 0.72 C430 + C555 + C556 + C557 + C558 + C559 + C560 + C561
   + C562 + C563 - 0.8 C590 - 0.72 C618 = 0
 R73: - 0.02 C276 - 0.02 C277 - 0.02 C278 - 0.02 C279 - 0.1 C280
   - 0.02 C281 - 0.02 C282 - 0.02 C283 - 0.02 C284 - 0.08 C517 + C564
   + C565 + C566 + C567 + C568 + C569 + C570 + C571 + C572 = 0
 R74: - C39 - C346 + C573 + C574 + C575 + C576 + C577 + C578 + C579 + C580
   + C581 = 0
 R75: - C40 - C347 + C582 + C583 + C584 + C585 + C586 + C587 + C588 + C589
   + C590 = 0
 R76: - 0.8 C588 + C591 + C592 + C593 + C594 + C595 + C596 + C597 + C598
   + C599 = 0
 R77: - 0.08 C163 - 0.08 C383 - 0.08 C428 + C600 + C601 = 0
 R78: - 0.08 C164 - 0.08 C429 + C602 + C603 + C604 + C605 + C606 + C607
   + C608 + C609 + C610 = 0
 R79: - 0.08 C25 + C611 + C612 + C613 + C614 + C615 + C616 + C617 + C618
   + C619 = 0
 R80: - 0.72 C19 - 0.8 C110 - 0.8 C145 - 0.8 C171 - 0.8 C391 - 0.2 C432
   - 0.2 C433 - 0.2 C434 - 0.2 C435 - C436 - 0.2 C437 - 0.2 C438 - 0.2 C439
   - 0.2 C440 - 0.8 C485 - 0.8 C534 - 0.18 C564 - 0.18 C565 - 0.18 C566
   - 0.18 C567 - 0.9 C568 - 0.18 C569 - 0.18 C570 - 0.18 C571 - 0.18 C572
   + C620 + C621 + C622 + C623 + C624 + C625 + C626 + C627 + C628 = 0
 R81: 10 C18 + 10 C19 + 10 C20 + 10 C21 + 10 C22 + 10 C23 + 10 C24 + 10 C25
   + 10 C26 + 10 C27 + 10 C28 + 10 C38 + 10 C39 + 10 C40 + 10 C41 + 10 C42
   + 10 C43 + C71 + C72 + C73 + C74 + C75 + C76 + C77 + C78 + C79 + C98
   + C99 + C100 + C101 + C102 + C103 + C104 + C105 + C106 + C107 + C108
   + C109 + C110 + C111 + C112 + C113 + C114 + C115 + C116 + C117 + C118
   + C119 + C120 + C121 + C122 + C123 + C124 + C143 + C144 + C145 + C146
   + C147 + C148 + C149 + C150 + C151 + 10 C161 + 10 C162 + 10 C163
   + 10 C164 + 10 C165 + 10 C166 + 10 C167 + 10 C168 + 10 C169 + C170
   + C171 + C172 + C173 + C174 + C175 + C176 + C177 + C178 + 10 C179
   + 10 C180 + C181 + C182 + C183 + C184 + C185 + C186 + C187 + C188 + C189
   + 10 C208 + 10 C209 + C210 + C211 + C212 + C213 + C214 + C215 + C216
   + C217 + C218 + 10 C228 + 10 C229 + 10 C230 + C240 + C241 + C242 + C243
   + C244 + C245 + C246 + C247 + C248 + C249 + C250 + C251 + C252 + C253
   + C254 + C255 + C256 + C257 + C258 + C259 + C260 + C261 + C262 + C263
   + C264 + C265 + C266 + 10 C276 + 10 C277 + 10 C278 + 10 C279 + 10 C280
   + 10 C281 + 10 C282 + 10 C283 + 10 C284 + C285 + C286 + C287 + C288
   + C289 + C290 + C291 + C292 + C293 + 10 C303 + 10 C304 + 10 C305
   + 10 C324 + 10 C325 + 10 C326 + C336 + C337 + C338 + C339 + C340 + C341
   + C342 + C343 + C344 + 10 C345 + 10 C346 + 10 C347 + C348 + C349 + C350
   + C351 + C352 + C353 + C354 + C355 + C356 + C366 + C367 + C368 + C369
   + C370 + C371 + C372 + C373 + C374 + 10 C375 + 10 C376 + 10 C377
   + 10 C378 + 10 C379 + 10 C380 + 10 C381 + 10 C382 + 10 C383 + C384
   + C385 + C386 + C387 + C388 + C389 + C390 + C391 + C392 + 10 C402
   + 10 C403 + 10 C404 + 10 C423 + 10 C424 + 10 C425 + 10 C426 + 10 C427
   + 10 C428 + 10 C429 + 10 C430 + 10 C431 + C432 + C433 + C434 + C435
   + C436 + C437 + C438 + C439 + C440 + 10 C441 + 10 C442 + 10 C443
   + 10 C453 + 10 C454 + 10 C455 + 10 C456 + 10 C457 + 10 C458 + 10 C459
   + 10 C460 + 10 C461 + C480 + C481 + C482 + C483 + C484 + C485 + C486
   + C487 + C488 + C498 + C499 + C500 + C501 + C502 + C503 + C504 + C505
   + C506 + 10 C516 + 10 C517 + 10 C518 + 10 C519 + 10 C520 + 10 C521
   + 10 C522 + 10 C523 + 10 C524 + C534 + C535 + C536 + C537 + C538 + C539
   + C540 + C541 + C542 + 10 C552 + 10 C553 + 10 C554 + 10 C564 + 10 C565
   + 10 C566 + 10 C567 + 10 C568 + 10 C569 + 10 C570 + 10 C571 + 10 C572
   + C573 + C574 + C575 + C576 + C577 + C578 + C579 + C580 + C581 + C582
   + C583 + C584 + C585 + C586 + C587 + C588 + C589 + C590 + 10 C600
   + 10 C601 + 10 C611 + 10 C612 + 10 C613 + 10 C614 + 10 C615 + 10 C616
   + 10 C617 + 10 C618 + 10 C619 <= 10000
 R82: C18 + C19 + C20 + C21 + C22 + C23 + C24 + C25 + C26 + 10 C27 + 10 C28
   + 10 C38 + 10 C39 + 10 C40 + 10 C41 + 10 C42 + 10 C43
   + 315.1592632516369 C71 + 236.6194490192345 C72 + 158.0796326794897 C73
   + 236.6194490192345 C74 + C75 + 79.53981633974485 C76
   + 158.0796326794897 C77 + 79.53981633974485 C78 + 1.000002107342425 C79
   + 236.6194490192345 C98 + 315.1592653589793 C99 + 236.6194490192345 C100
   + 158.0796326794897 C101 + C102 + 158.0796326794897 C103
   + 79.53981633974485 C104 + C105 + 79.53981633974485 C106
   + 158.0796326794897 C107 + 79.53981633974485 C108
   + 1.000002107342425 C109 + 236.6194490192345 C110 + C111
   + 79.53981633974485 C112 + 315.1592632516369 C113
   + 236.6194490192345 C114 + 158.0796326794897 C115
   + 158.0796326794897 C116 + 236.6194490192345 C117
   + 315.1592632516369 C118 + 79.53981633974485 C119 + C120
   + 236.6194490192345 C121 + 1.000002107342425 C122
   + 79.53981633974485 C123 + 158.0796326794897 C124
   + 79.53981633974485 C143 + 158.0796326794897 C144
   + 236.6194490192345 C145 + C146 + C147 + 315.1592653589793 C148
   + 79.53981633974485 C149 + 158.0796326794897 C150
   + 236.6194490192345 C151 + 236.6194490192345 C161
   + 315.1592653589793 C162 + 236.6194490192345 C163
   + 158.0796326794897 C164 + C165 + 158.0796326794897 C166
   + 79.53981633974485 C167 + C168 + 79.53981633974485 C169 + C170 + C171
   + C172 + C173 + C174 + C175 + C176 + C177 + C178 + 10 C179 + 10 C180
   + 315.1592632516369 C181 + 236.6194490192345 C182
   + 158.0796326794897 C183 + 236.6194490192345 C184 + C185
   + 79.53981633974485 C186 + 158.0796326794897 C187
   + 79.53981633974485 C188 + 1.000002107342425 C189 + 10 C208 + 10 C209
   + 1.000002107342425 C210 + 79.53981633974485 C211
   + 158.0796326794897 C212 + 79.53981633974485 C213 + C214
   + 236.6194490192345 C215 + 158.0796326794897 C216
   + 236.6194490192345 C217 + 315.1592632516369 C218 + 10 C228 + 10 C229
   + 10 C230 + 236.6194490192345 C240 + 158.0796326794897 C241
   + 79.53981633974485 C242 + 315.1592653589793 C243 + C244 + C245
   + 236.6194490192345 C246 + 158.0796326794897 C247
   + 79.53981633974485 C248 + 158.0796326794897 C249
   + 79.53981633974485 C250 + 1.000002107342425 C251
   + 236.6194490192345 C252 + C253 + 79.53981633974485 C254
   + 315.1592632516369 C255 + 236.6194490192345 C256
   + 158.0796326794897 C257 + 236.6194490192345 C258
   + 158.0796326794897 C259 + 79.53981633974485 C260
   + 315.1592653589793 C261 + C262 + C263 + 236.6194490192345 C264
   + 158.0796326794897 C265 + 79.53981633974485 C266
   + 79.53981633974485 C276 + C277 + 79.53981633974485 C278
   + 158.0796326794897 C279 + C280 + 158.0796326794897 C281
   + 236.6194490192345 C282 + 315.1592653589793 C283
   + 236.6194490192345 C284 + 79.53981633974485 C285
   + 158.0796326794897 C286 + 236.6194490192345 C287 + C288 + C289
   + 315.1592653589793 C290 + 79.53981633974485 C291
   + 158.0796326794897 C292 + 236.6194490192345 C293 + 10 C303 + 10 C304
   + 10 C305 + 10 C324 + 10 C325 + 10 C326 + 315.1592632516369 C336
   + 236.6194490192345 C337 + 158.0796326794897 C338
   + 236.6194490192345 C339 + C340 + 79.53981633974485 C341
   + 158.0796326794897 C342 + 79.53981633974485 C343
   + 1.000002107342425 C344 + 10 C345 + 10 C346 + 10 C347
   + 1.000002107342425 C348 + 79.53981633974485 C349
   + 158.0796326794897 C350 + 79.53981633974485 C351 + C352
   + 236.6194490192345 C353 + 158.0796326794897 C354
   + 236.6194490192345 C355 + 315.1592632516369 C356 + C366 + C367 + C368
   + C369 + C370 + C371 + C372 + C373 + C374 + C375 + C376 + C377 + C378
   + C379 + C380 + C381 + C382 + C383 + 79.53981633974485 C384 + C385
   + 79.53981633974485 C386 + 158.0796326794897 C387 + C388
   + 158.0796326794897 C389 + 236.6194490192345 C390
   + 315.1592653589793 C391 + 236.6194490192345 C392 + 10 C402 + 10 C403
   + 10 C404 + 236.6194490192345 C423 + 315.1592653589793 C424
   + 236.6194490192345 C425 + 158.0796326794897 C426 + C427
   + 158.0796326794897 C428 + 79.53981633974485 C429 + C430
   + 79.53981633974485 C431 + 79.53981633974485 C432 + C433
   + 79.53981633974485 C434 + 158.0796326794897 C435 + C436
   + 158.0796326794897 C437 + 236.6194490192345 C438
   + 315.1592653589793 C439 + 236.6194490192345 C440 + 10 C441 + 10 C442
   + 10 C443 + 10 C453 + 10 C454 + 10 C455 + 10 C456 + 10 C457 + 10 C458
   + 10 C459 + 10 C460 + 10 C461 + 1.000002107342425 C480
   + 79.53981633974485 C481 + 158.0796326794897 C482
   + 79.53981633974485 C483 + C484 + 236.6194490192345 C485
   + 158.0796326794897 C486 + 236.6194490192345 C487
   + 315.1592632516369 C488 + 79.53981633974485 C498 + C499
   + 79.53981633974485 C500 + 158.0796326794897 C501 + C502
   + 158.0796326794897 C503 + 236.6194490192345 C504
   + 315.1592653589793 C505 + 236.6194490192345 C506 + C516 + C517 + C518
   + C519 + C520 + C521 + C522 + C523 + C524 + 236.6194490192345 C534
   + 158.0796326794897 C535 + 79.53981633974485 C536
   + 315.1592653589793 C537 + C538 + C539 + 236.6194490192345 C540
   + 158.0796326794897 C541 + 79.53981633974485 C542 + 10 C552 + 10 C553
   + 10 C554 + 79.53981633974485 C564 + C565 + 79.53981633974485 C566
   + 158.0796326794897 C567 + C568 + 158.0796326794897 C569
   + 236.6194490192345 C570 + 315.1592653589793 C571
   + 236.6194490192345 C572 + 79.53981633974485 C573
   + 158.0796326794897 C574 + 236.6194490192345 C575 + C576 + C577
   + 315.1592653589793 C578 + 79.53981633974485 C579
   + 158.0796326794897 C580 + 236.6194490192345 C581
   + 158.0796326794897 C582 + 236.6194490192345 C583
   + 315.1592632516369 C584 + 79.53981633974485 C585 + C586
   + 236.6194490192345 C587 + 1.000002107342425 C588
   + 79.53981633974485 C589 + 158.0796326794897 C590 + 10 C600 + 10 C601
   + 236.6194490192345 C611 + 315.1592653589793 C612
   + 236.6194490192345 C613 + 158.0796326794897 C614 + C615
   + 158.0796326794897 C616 + 79.53981633974485 C617 + C618
   + 79.53981633974485 C619 <= 10000
Bounds
 C0 <= 1e+06
 C1 <= 1e+06
 C2 <= 1e+06
 C3 <= 1e+06
 C4 <= 1e+06
 C5 <= 1e+06
 C6 <= 1e+06
 C7 <= 1e+06
 C8 <= 1e+06
 C9 <= 1e+06
 C10 <= 1e+06
 C11 <= 1e+06
 C12 <= 1e+06
 C13 <= 1e+06
 C14 <= 1e+06
 C15 <= 1e+06
 C16 <= 1e+06
 C17 <= 1e+06
 C18 <= 1e+06
 C19 <= 1e+06
 C20 <= 1e+06
 C21 <= 1e+06
 C22 <= 1e+06
 C23 <= 1e+06
 C24 <= 1e+06
 C25 <= 1e+06
 C26 <= 1e+06
 C27 <= 1e+06
 C28 <= 1e+06
 C29 <= 1e+06
 C30 <= 1e+06
 C31 <= 1e+06
 C32 <= 1e+06
 C33 <= 1e+06
 C34 <= 1e+06
 C35 <= 1e+06
 C36 <= 1e+06
 C37 <= 1e+06
 C38 <= 1e+06
 C39 <= 1e+06
 C40 <= 1e+06
 C41 <= 1e+06
 C42 <= 1e+06
 C43 <= 1e+06
 C44 <= 1e+06
 C45 <= 1e+06
 C46 <= 1e+06
 C47 <= 1e+06
 C48 <= 1e+06
 C49 <= 1e+06
 C50 <= 1e+06
 C51 <= 1e+06
 C52 <= 1e+06
 C53 <= 1e+06
 C54 <= 1e+06
 C55 <= 1e+06
 C56 <= 1e+06
 C57 <= 1e+06
 C58 <= 1e+06
 C59 <= 1e+06
 C60 <= 1e+06
 C61 <= 1e+06
 C62 <= 1e+06
 C63 <= 1e+06
 C64 <= 1e+06
 C65 <= 1e+06
 C66 <= 1e+06
 C67 <= 1e+06
 C68 <= 1e+06
 C69 <= 1e+06
 C70 <= 1e+06
 C71 <= 1e+06
 C72 <= 1e+06
 C73 <= 1e+06
 C74 <= 1e+06
 C75 <= 1e+06
 C76 <= 1e+06
 C77 <= 1e+06
 C78 <= 1e+06
 C79 <= 1e+06
 C80 <= 1e+06
 C81 <= 1e+06
 C82 <= 1e+06
 C83 <= 1e+06
 C84 <= 1e+06
 C85 <= 1e+06
 C86 <= 1e+06
 C87 <= 1e+06
 C88 <= 1e+06
 C89 <= 1e+06
 C90 <= 1e+06
 C91 <= 1e+06
 C92 <= 1e+06
 C93 <= 1e+06
 C94 <= 1e+06
 C95 <= 1e+06
 C96 <= 1e+06
 C97 <= 1e+06
 C98 <= 1e+06
 C99 <= 1e+06
 C100 <= 1e+06
 C101 <= 1e+06
 C102 <= 1e+06
 C103 <= 1e+06
 C104 <= 1e+06
 C105 <= 1e+06
 C106 <= 1e+06
 C107 <= 1e+06
 C108 <= 1e+06
 C109 <= 1e+06
 C110 <= 1e+06
 C111 <= 1e+06
 C112 <= 1e+06
 C113 <= 1e+06
 C114 <= 1e+06
 C115 <= 1e+06
 C116 <= 1e+06
 C117 <= 1e+06
 C118 <= 1e+06
 C119 <= 1e+06
 C120 <= 1e+06
 C121 <= 1e+06
 C122 <= 1e+06
 C123 <= 1e+06
 C124 <= 1e+06
 C125 <= 1e+06
 C126 <= 1e+06
 C127 <= 1e+06
 C128 <= 1e+06
 C129 <= 1e+06
 C130 <= 1e+06
 C131 <= 1e+06
 C132 <= 1e+06
 C133 <= 1e+06
 C134 <= 1e+06
 C135 <= 1e+06
 C136 <= 1e+06
 C137 <= 1e+06
 C138 <= 1e+06
 C139 <= 1e+06
 C140 <= 1e+06
 C141 <= 1e+06
 C142 <= 1e+06
 C143 <= 1e+06
 C144 <= 1e+06
 C145 <= 1e+06
 C146 <= 1e+06
 C147 <= 1e+06
 C148 <= 1e+06
 C149 <= 1e+06
 C150 <= 1e+06
 C151 <= 1e+06
 C152 <= 1e+06
 C153 <= 1e+06
 C154 <= 1e+06
 C155 <= 1e+06
 C156 <= 1e+06
 C157 <= 1e+06
 C158 <= 1e+06
 C159 <= 1e+06
 C160 <= 1e+06
 C161 <= 1e+06
 C162 <= 1e+06
 C163 <= 1e+06
 C164 <= 1e+06
 C165 <= 1e+06
 C166 <= 1e+06
 C167 <= 1e+06
 C168 <= 1e+06
 C169 <= 1e+06
 C170 <= 1e+06
 C171 <= 1e+06
 C172 <= 1e+06
 C173 <= 1e+06
 C174 <= 1e+06
 C175 <= 1e+06
 C176 <= 1e+06
 C177 <= 1e+06
 C178 <= 1e+06
 C179 <= 1e+06
 C180 <= 1e+06
 C181 <= 1e+06
 C182 <= 1e+06
 C183 <= 1e+06
 C184 <= 1e+06
 C185 <= 1e+06
 C186 <= 1e+06
 C187 <= 1e+06
 C188 <= 1e+06
 C189 <= 1e+06
 C190 <= 1e+06
 C191 <= 1e+06
 C192 <= 1e+06
 C193 <= 1e+06
 C194 <= 1e+06
 C195 <= 1e+06
 C196 <= 1e+06
 C197 <= 1e+06
 C198 <= 1e+06
 C199 <= 1e+06
 C200 <= 1e+06
 C201 <= 1e+06
 C202 <= 1e+06
 C203 <= 1e+06
 C204 <= 1e+06
 C205 <= 1e+06
 C206 <= 1e+06
 C207 <= 1e+06
 C208 <= 1e+06
 C209 <= 1e+06
 C210 <= 1e+06
 C211 <= 1e+06
 C212 <= 1e+06
 C213 <= 1e+06
 C214 <= 1e+06
 C215 <= 1e+06
 C216 <= 1e+06
 C217 <= 1e+06
 C218 <= 1e+06
 C219 <= 1e+06
 C220 <= 1e+06
 C221 <= 1e+06
 C222 <= 1e+06
 C223 <= 1e+06
 C224 <= 1e+06
 C225 <= 1e+06
 C226 <= 1e+06
 C227 <= 1e+06
 C228 <= 1e+06
 C229 <= 1e+06
 C230 <= 1e+06
 C231 <= 1e+06
 C232 <= 1e+06
 C233 <= 1e+06
 C234 <= 1e+06
 C235 <= 1e+06
 C236 <= 1e+06
 C237 <= 1e+06
 C238 <= 1e+06
 C239 <= 1e+06
 C240 <= 1e+06
 C241 <= 1e+06
 C242 <= 1e+06
 C243 <= 1e+06
 C244 <= 1e+06
 C245 <= 1e+06
 C246 <= 1e+06
 C247 <= 1e+06
 C248 <= 1e+06
 C249 <= 1e+06
 C250 <= 1e+06
 C251 <= 1e+06
 C252 <= 1e+06
 C253 <= 1e+06
 C254 <= 1e+06
 C255 <= 1e+06
 C256 <= 1e+06
 C257 <= 1e+06
 C258 <= 1e+06
 C259 <= 1e+06
 C260 <= 1e+06
 C261 <= 1e+06
 C262 <= 1e+06
 C263 <= 1e+06
 C264 <= 1e+06
 C265 <= 1e+06
 C266 <= 1e+06
 C267 <= 1e+06
 C268 <= 1e+06
 C269 <= 1e+06
 C270 <= 1e+06
 C271 <= 1e+06
 C272 <= 1e+06
 C273 <= 1e+06
 C274 <= 1e+06
 C275 <= 1e+06
 C276 <= 1e+06
 C277 <= 1e+06
 C278 <= 1e+06
 C279 <= 1e+06
 C280 <= 1e+06
 C281 <= 1e+06
 C282 <= 1e+06
 C283 <= 1e+06
 C284 <= 1e+06
 C285 <= 1e+06
 C286 <= 1e+06
 C287 <= 1e+06
 C288 <= 1e+06
 C289 <= 1e+06
 C290 <= 1e+06
 C291 <= 1e+06
 C292 <= 1e+06
 C293 <= 1e+06
 C294 <= 1e+06
 C295 <= 1e+06
 C296 <= 1e+06
 C297 <= 1e+06
 C298 <= 1e+06
 C299 <= 1e+06
 C300 <= 1e+06
 C301 <= 1e+06
 C302 <= 1e+06
 C303 <= 1e+06
 C304 <= 1e+06
 C305 <= 1e+06
 C306 <= 1e+06
 C307 <= 1e+06
 C308 <= 1e+06
 C309 <= 1e+06
 C310 <= 1e+06
 C311 <= 1e+06
 C312 <= 1e+06
 C313 <= 1e+06
 C314 <= 1e+06
 C315 <= 1e+06
 C316 <= 1e+06
 C317 <= 1e+06
 C318 <= 1e+06
 C319 <= 1e+06
 C320 <= 1e+06
 C321 <= 1e+06
 C322 <= 1e+06
 C323 <= 1e+06
 C324 <= 1e+06
 C325 <= 1e+06
 C326 <= 1e+06
 C327 <= 1e+06
 C328 <= 1e+06
 C329 <= 1e+06
 C330 <= 1e+06
 C331 <= 1e+06
 C332 <= 1e+06
 C333 <= 1e+06
 C334 <= 1e+06
 C335 <= 1e+06
 C336 <= 1e+06
 C337 <= 1e+06
 C338 <= 1e+06
 C339 <= 1e+06
 C340 <= 1e+06
 C341 <= 1e+06
 C342 <= 1e+06
 C343 <= 1e+06
 C344 <= 1e+06
 C345 <= 1e+06
 C346 <= 1e+06
 C347 <= 1e+06
 C348 <= 1e+06
 C349 <= 1e+06
 C350 <= 1e+06
 C351 <= 1e+06
 C352 <= 1e+06
 C353 <= 1e+06
 C354 <= 1e+06
 C355 <= 1e+06
 C356 <= 1e+06
 C357 <= 1e+06
 C358 <= 1e+06
 C359 <= 1e+06
 C360 <= 1e+06
 C361 <= 1e+06
 C362 <= 1e+06
 C363 <= 1e+06
 C364 <= 1e+06
 C365 <= 1e+06
 C366 <= 1e+06
 C367 <= 1e+06
 C368 <= 1e+06
 C369 <= 1e+06
 C370 <= 1e+06
 C371 <= 1e+06
 C372 <= 1e+06
 C373 <= 1e+06
 C374 <= 1e+06
 C375 <= 1e+06
 C376 <= 1e+06
 C377 <= 1e+06
 C378 <= 1e+06
 C379 <= 1e+06
 C380 <= 1e+06
 C381 <= 1e+06
 C382 <= 1e+06
 C383 <= 1e+06
 C384 <= 1e+06
 C385 <= 1e+06
 C386 <= 1e+06
 C387 <= 1e+06
 C388 <= 1e+06
 C389 <= 1e+06
 C390 <= 1e+06
 C391 <= 1e+06
 C392 <= 1e+06
 C393 <= 1e+06
 C394 <= 1e+06
 C395 <= 1e+06
 C396 <= 1e+06
 C397 <= 1e+06
 C398 <= 1e+06
 C399 <= 1e+06
 C400 <= 1e+06
 C401 <= 1e+06
 C402 <= 1e+06
 C403 <= 1e+06
 C404 <= 1e+06
 C405 <= 1e+06
 C406 <= 1e+06
 C407 <= 1e+06
 C408 <= 1e+06
 C409 <= 1e+06
 C410 <= 1e+06
 C411 <= 1e+06
 C412 <= 1e+06
 C413 <= 1e+06
 C414 <= 1e+06
 C415 <= 1e+06
 C416 <= 1e+06
 C417 <= 1e+06
 C418 <= 1e+06
 C419 <= 1e+06
 C420 <= 1e+06
 C421 <= 1e+06
 C422 <= 1e+06
 C423 <= 1e+06
 C424 <= 1e+06
 C425 <= 1e+06
 C426 <= 1e+06
 C427 <= 1e+06
 C428 <= 1e+06
 C429 <= 1e+06
 C430 <= 1e+06
 C431 <= 1e+06
 C432 <= 1e+06
 C433 <= 1e+06
 C434 <= 1e+06
 C435 <= 1e+06
 C436 <= 1e+06
 C437 <= 1e+06
 C438 <= 1e+06
 C439 <= 1e+06
 C440 <= 1e+06
 C441 <= 1e+06
 C442 <= 1e+06
 C443 <= 1e+06
 C444 <= 1e+06
 C445 <= 1e+06
 C446 <= 1e+06
 C447 <= 1e+06
 C448 <= 1e+06
 C449 <= 1e+06
 C450 <= 1e+06
 C451 <= 1e+06
 C452 <= 1e+06
 C453 <= 1e+06
 C454 <= 1e+06
 C455 <= 1e+06
 C456 <= 1e+06
 C457 <= 1e+06
 C458 <= 1e+06
 C459 <= 1e+06
 C460 <= 1e+06
 C461 <= 1e+06
 C462 <= 1e+06
 C463 <= 1e+06
 C464 <= 1e+06
 C465 <= 1e+06
 C466 <= 1e+06
 C467 <= 1e+06
 C468 <= 1e+06
 C469 <= 1e+06
 C470 <= 1e+06
 C471 <= 1e+06
 C472 <= 1e+06
 C473 <= 1e+06
 C474 <= 1e+06
 C475 <= 1e+06
 C476 <= 1e+06
 C477 <= 1e+06
 C478 <= 1e+06
 C479 <= 1e+06
 C480 <= 1e+06
 C481 <= 1e+06
 C482 <= 1e+06
 C483 <= 1e+06
 C484 <= 1e+06
 C485 <= 1e+06
 C486 <= 1e+06
 C487 <= 1e+06
 C488 <= 1e+06
 C489 <= 1e+06
 C490 <= 1e+06
 C491 <= 1e+06
 C492 <= 1e+06
 C493 <= 1e+06
 C494 <= 1e+06
 C495 <= 1e+06
 C496 <= 1e+06
 C497 <= 1e+06
 C498 <= 1e+06
 C499 <= 1e+06
 C500 <= 1e+06
 C501 <= 1e+06
 C502 <= 1e+06
 C503 <= 1e+06
 C504 <= 1e+06
 C505 <= 1e+06
 C506 <= 1e+06
 C507 <= 1e+06
 C508 <= 1e+06
 C509 <= 1e+06
 C510 <= 1e+06
 C511 <= 1e+06
 C512 <= 1e+06
 C513 <= 1e+06
 C514 <= 1e+06
 C515 <= 1e+06
 C516 <= 1e+06
 C517 <= 1e+06
 C518 <= 1e+06
 C519 <= 1e+06
 C520 <= 1e+06
 C521 <= 1e+06
 C522 <= 1e+06
 C523 <= 1e+06
 C524 <= 1e+06
 C525 <= 1e+06
 C526 <= 1e+06
 C527 <= 1e+06
 C528 <= 1e+06
 C529 <= 1e+06
 C530 <= 1e+06
 C531 <= 1e+06
 C532 <= 1e+06
 C533 <= 1e+06
 C534 <= 1e+06
 C535 <= 1e+06
 C536 <= 1e+06
 C537 <= 1e+06
 C538 <= 1e+06
 C539 <= 1e+06
 C540 <= 1e+06
 C541 <= 1e+06
 C542 <= 1e+06
 C543 <= 1e+06
 C544 <= 1e+06
 C545 <= 1e+06
 C546 <= 1e+06
 C547 <= 1e+06
 C548 <= 1e+06
 C549 <= 1e+06
 C550 <= 1e+06
 C551 <= 1e+06
 C552 <= 1e+06
 C553 <= 1e+06
 C554 <= 1e+06
 C555 <= 1e+06
 C556 <= 1e+06
 C557 <= 1e+06
 C558 <= 1e+06
 C559 <= 1e+06
 C560 <= 1e+06
 C561 <= 1e+06
 C562 <= 1e+06
 C563 <= 1e+06
 C564 <= 1e+06
 C565 <= 1e+06
 C566 <= 1e+06
 C567 <= 1e+06
 C568 <= 1e+06
 C569 <= 1e+06
 C570 <= 1e+06
 C571 <= 1e+06
 C572 <= 1e+06
 C573 <= 1e+06
 C574 <= 1e+06
 C575 <= 1e+06
 C576 <= 1e+06
 C577 <= 1e+06
 C578 <= 1e+06
 C579 <= 1e+06
 C580 <= 1e+06
 C581 <= 1e+06
 C582 <= 1e+06
 C583 <= 1e+06
 C584 <= 1e+06
 C585 <= 1e+06
 C586 <= 1e+06
 C587 <= 1e+06
 C588 <= 1e+06
 C589 <= 1e+06
 C590 <= 1e+06
 C591 <= 1e+06
 C592 <= 1e+06
 C593 <= 1e+06
 C594 <= 1e+06
 C595 <= 1e+06
 C596 <= 1e+06
 C597 <= 1e+06
 C598 <= 1e+06
 C599 <= 1e+06
 C600 <= 1e+06
 C601 <= 1e+06
 C602 <= 1e+06
 C603 <= 1e+06
 C604 <= 1e+06
 C605 <= 1e+06
 C606 <= 1e+06
 C607 <= 1e+06
 C608 <= 1e+06
 C609 <= 1e+06
 C610 <= 1e+06
 C611 <= 1e+06
 C612 <= 1e+06
 C613 <= 1e+06
 C614 <= 1e+06
 C615 <= 1e+06
 C616 <= 1e+06
 C617 <= 1e+06
 C618 <= 1e+06
 C619 <= 1e+06
 C620 <= 1e+06
 C621 <= 1e+06
 C622 <= 1e+06
 C623 <= 1e+06
 C624 <= 1e+06
 C625 <= 1e+06
 C626 <= 1e+06
 C627 <= 1e+06
 C628 <= 1e+06
End
